30
1 0 11
2 0 6
2 1 4
3 0 11
3 1 14
3 2 13
4 0 13
4 1 9
4 2 15
4 3 8
5 0 20
5 1 5
5 2 15
5 3 11
5 4 6
6 0 2
6 1 10
6 2 15
6 3 17
6 4 15
6 5 9
7 0 14
7 1 20
7 2 10
7 3 16
7 4 8
7 5 10
7 6 14
8 0 12
8 1 10
8 2 20
8 3 16
8 4 20
8 5 12
8 6 5
8 7 11
9 0 10
9 1 13
9 2 3
9 3 1
9 4 6
9 5 11
9 6 20
9 7 2
9 8 18
10 0 13
10 1 5
10 2 19
10 3 4
10 4 18
10 5 1
10 6 18
10 7 5
10 8 16
10 9 11
11 0 1
11 1 8
11 2 6
11 3 20
11 4 16
11 5 3
11 6 1
11 7 16
11 8 16
11 9 3
11 10 13
12 0 18
12 1 12
12 2 1
12 3 6
12 4 11
12 5 10
12 6 10
12 7 8
12 8 6
12 9 8
12 10 16
12 11 5
13 0 10
13 1 19
13 2 16
13 3 14
13 4 1
13 5 7
13 6 12
13 7 7
13 8 12
13 9 12
13 10 1
13 11 11
13 12 13
14 0 20
14 1 8
14 2 19
14 3 1
14 4 1
14 5 11
14 6 9
14 7 12
14 8 6
14 9 12
14 10 4
14 11 11
14 12 16
14 13 10
15 0 10
15 1 1
15 2 17
15 3 17
15 4 13
15 5 3
15 6 18
15 7 16
15 8 20
15 9 10
15 10 16
15 11 14
15 12 13
15 13 8
15 14 11
16 0 14
16 1 2
16 2 2
16 3 6
16 4 20
16 5 20
16 6 5
16 7 7
16 8 18
16 9 6
16 10 11
16 11 9
16 12 18
16 13 12
16 14 18
16 15 2
17 0 5
17 1 18
17 2 17
17 3 15
17 4 8
17 5 11
17 6 15
17 7 19
17 8 3
17 9 3
17 10 13
17 11 3
17 12 15
17 13 3
17 14 2
17 15 11
17 16 6
18 0 15
18 1 9
18 2 6
18 3 11
18 4 19
18 5 19
18 6 12
18 7 7
18 8 11
18 9 6
18 10 18
18 11 2
18 12 7
18 13 20
18 14 20
18 15 14
18 16 17
18 17 9
19 0 1
19 1 1
19 2 19
19 3 16
19 4 10
19 5 7
19 6 3
19 7 11
19 8 6
19 9 5
19 10 3
19 11 19
19 12 9
19 13 1
19 14 20
19 15 8
19 16 5
19 17 5
19 18 4
20 0 7
20 1 3
20 2 20
20 3 9
20 4 17
20 5 14
20 6 17
20 7 12
20 8 18
20 9 3
20 10 7
20 11 18
20 12 2
20 13 5
20 14 2
20 15 17
20 16 19
20 17 1
20 18 3
20 19 8
21 0 11
21 1 5
21 2 12
21 3 2
21 4 18
21 5 4
21 6 16
21 7 20
21 8 18
21 9 17
21 10 3
21 11 16
21 12 9
21 13 5
21 14 5
21 15 3
21 16 5
21 17 15
21 18 16
21 19 2
21 20 3
22 0 7
22 1 14
22 2 11
22 3 14
22 4 4
22 5 19
22 6 12
22 7 11
22 8 5
22 9 16
22 10 10
22 11 16
22 12 19
22 13 7
22 14 1
22 15 17
22 16 18
22 17 14
22 18 11
22 19 8
22 20 5
22 21 12
23 0 8
23 1 15
23 2 4
23 3 6
23 4 13
23 5 20
23 6 18
23 7 19
23 8 13
23 9 18
23 10 6
23 11 8
23 12 9
23 13 12
23 14 4
23 15 11
23 16 7
23 17 1
23 18 10
23 19 8
23 20 8
23 21 8
23 22 20
24 0 13
24 1 18
24 2 3
24 3 8
24 4 4
24 5 16
24 6 8
24 7 15
24 8 14
24 9 20
24 10 8
24 11 6
24 12 7
24 13 10
24 14 7
24 15 14
24 16 5
24 17 6
24 18 10
24 19 12
24 20 1
24 21 2
24 22 14
24 23 15
25 0 14
25 1 5
25 2 4
25 3 7
25 4 9
25 5 3
25 6 3
25 7 18
25 8 13
25 9 3
25 10 18
25 11 11
25 12 19
25 13 5
25 14 13
25 15 1
25 16 11
25 17 2
25 18 17
25 19 9
25 20 4
25 21 19
25 22 16
25 23 9
25 24 15
26 0 4
26 1 14
26 2 15
26 3 5
26 4 16
26 5 2
26 6 12
26 7 10
26 8 4
26 9 17
26 10 16
26 11 5
26 12 18
26 13 12
26 14 14
26 15 20
26 16 15
26 17 9
26 18 17
26 19 14
26 20 15
26 21 16
26 22 16
26 23 19
26 24 5
26 25 1
27 0 11
27 1 14
27 2 15
27 3 9
27 4 18
27 5 2
27 6 10
27 7 8
27 8 16
27 9 3
27 10 12
27 11 5
27 12 7
27 13 17
27 14 17
27 15 20
27 16 17
27 17 2
27 18 13
27 19 16
27 20 1
27 21 1
27 22 4
27 23 17
27 24 9
27 25 2
27 26 6
28 0 11
28 1 15
28 2 8
28 3 7
28 4 17
28 5 19
28 6 18
28 7 19
28 8 11
28 9 10
28 10 2
28 11 3
28 12 11
28 13 10
28 14 19
28 15 3
28 16 12
28 17 15
28 18 14
28 19 8
28 20 6
28 21 16
28 22 20
28 23 7
28 24 8
28 25 18
28 26 10
28 27 6
29 0 2
29 1 4
29 2 18
29 3 20
29 4 6
29 5 11
29 6 19
29 7 5
29 8 14
29 9 11
29 10 14
29 11 1
29 12 11
29 13 19
29 14 18
29 15 20
29 16 20
29 17 1
29 18 1
29 19 13
29 20 14
29 21 8
29 22 13
29 23 14
29 24 12
29 25 12
29 26 16
29 27 12
29 28 6
